Problem:    immagini
Rows:       75
Columns:    40 (40 integer, 40 binary)
Non-zeros:  219
Status:     INTEGER OPTIMAL
Objective:  ricavi = 4892 (MAXimum)

   No.   Row name        Activity     Lower bound   Upper bound
------ ------------    ------------- ------------- -------------
     1 tempo_totale             -288          -300               
     2 sovrapposizione[1,2]
                                   1                           1 
     3 sovrapposizione[6,7]
                                   1                           1 
     4 sovrapposizione[13,14]
                                   1                           1 
     5 sovrapposizione[13,15]
                                   1                           1 
     6 sovrapposizione[14,15]
                                   0                           1 
     7 sovrapposizione[14,16]
                                   1                           1 
     8 sovrapposizione[15,16]
                                   1                           1 
     9 sovrapposizione[15,17]
                                   0                           1 
    10 sovrapposizione[15,18]
                                   0                           1 
    11 sovrapposizione[15,19]
                                   0                           1 
    12 sovrapposizione[15,20]
                                   0                           1 
    13 sovrapposizione[16,17]
                                   1                           1 
    14 sovrapposizione[16,18]
                                   1                           1 
    15 sovrapposizione[16,19]
                                   1                           1 
    16 sovrapposizione[16,20]
                                   1                           1 
    17 sovrapposizione[16,21]
                                   1                           1 
    18 sovrapposizione[17,18]
                                   0                           1 
    19 sovrapposizione[17,19]
                                   0                           1 
    20 sovrapposizione[17,20]
                                   0                           1 
    21 sovrapposizione[18,19]
                                   0                           1 
    22 sovrapposizione[18,20]
                                   0                           1 
    23 sovrapposizione[19,20]
                                   0                           1 
    24 sovrapposizione[19,21]
                                   0                           1 
    25 sovrapposizione[19,22]
                                   1                           1 
    26 sovrapposizione[20,21]
                                   0                           1 
    27 sovrapposizione[21,22]
                                   1                           1 
    28 sovrapposizione[21,23]
                                   1                           1 
    29 sovrapposizione[24,25]
                                   1                           1 
    30 sovrapposizione[24,26]
                                   1                           1 
    31 sovrapposizione[24,27]
                                   1                           1 
    32 sovrapposizione[24,28]
                                   1                           1 
    33 sovrapposizione[24,29]
                                   1                           1 
    34 sovrapposizione[24,30]
                                   1                           1 
    35 sovrapposizione[24,31]
                                   1                           1 
    36 sovrapposizione[24,32]
                                   1                           1 
    37 sovrapposizione[24,33]
                                   1                           1 
    38 sovrapposizione[24,34]
                                   1                           1 
    39 sovrapposizione[25,26]
                                   0                           1 
    40 sovrapposizione[26,27]
                                   0                           1 
    41 sovrapposizione[26,28]
                                   0                           1 
    42 sovrapposizione[26,29]
                                   0                           1 
    43 sovrapposizione[26,30]
                                   0                           1 
    44 sovrapposizione[27,28]
                                   0                           1 
    45 sovrapposizione[29,30]
                                   0                           1 
    46 sovrapposizione[29,31]
                                   0                           1 
    47 sovrapposizione[29,32]
                                   0                           1 
    48 sovrapposizione[29,33]
                                   0                           1 
    49 sovrapposizione[30,31]
                                   0                           1 
    50 sovrapposizione[30,32]
                                   0                           1 
    51 sovrapposizione[30,33]
                                   0                           1 
    52 sovrapposizione[30,34]
                                   0                           1 
    53 sovrapposizione[31,32]
                                   0                           1 
    54 sovrapposizione[31,33]
                                   0                           1 
    55 sovrapposizione[32,33]
                                   0                           1 
    56 sovrapposizione[32,34]
                                   0                           1 
    57 sovrapposizione[33,34]
                                   0                           1 
    58 sovrapposizione[33,35]
                                   0                           1 
    59 sovrapposizione[34,35]
                                   0                           1 
    60 sovrapposizione[36,37]
                                   1                           1 
    61 sovrapposizione[36,38]
                                   0                           1 
    62 sovrapposizione[36,39]
                                   0                           1 
    63 sovrapposizione[37,38]
                                   1                           1 
    64 sovrapposizione[37,39]
                                   1                           1 
    65 sovrapposizione[38,39]
                                   0                           1 
    66 sovrapposizione[38,40]
                                   1                           1 
    67 sovrapposizione[39,40]
                                   1                           1 
    68 immagini_forzate[2]
                                   1             1             = 
    69 immagini_forzate[3]
                                   1             1             = 
    70 immagini_forzate[6]
                                   1             1             = 
    71 immagini_forzate[13]
                                   1             1             = 
    72 immagini_forzate[16]
                                   1             1             = 
    73 immagini_forzate[24]
                                   1             1             = 
    74 immagini_forzate[37]
                                   1             1             = 
    75 ricavi                   4892                             

   No. Column name       Activity     Lower bound   Upper bound
------ ------------    ------------- ------------- -------------
     1 scelta[1]    *              0             0             1 
     2 scelta[2]    *              1             0             1 
     3 scelta[3]    *              1             0             1 
     4 scelta[4]    *              1             0             1 
     5 scelta[5]    *              1             0             1 
     6 scelta[6]    *              1             0             1 
     7 scelta[7]    *              0             0             1 
     8 scelta[8]    *              1             0             1 
     9 scelta[9]    *              1             0             1 
    10 scelta[10]   *              1             0             1 
    11 scelta[11]   *              1             0             1 
    12 scelta[12]   *              1             0             1 
    13 scelta[13]   *              1             0             1 
    14 scelta[14]   *              0             0             1 
    15 scelta[15]   *              0             0             1 
    16 scelta[16]   *              1             0             1 
    17 scelta[17]   *              0             0             1 
    18 scelta[18]   *              0             0             1 
    19 scelta[19]   *              0             0             1 
    20 scelta[20]   *              0             0             1 
    21 scelta[21]   *              0             0             1 
    22 scelta[22]   *              1             0             1 
    23 scelta[23]   *              1             0             1 
    24 scelta[24]   *              1             0             1 
    25 scelta[25]   *              0             0             1 
    26 scelta[26]   *              0             0             1 
    27 scelta[27]   *              0             0             1 
    28 scelta[28]   *              0             0             1 
    29 scelta[29]   *              0             0             1 
    30 scelta[30]   *              0             0             1 
    31 scelta[31]   *              0             0             1 
    32 scelta[32]   *              0             0             1 
    33 scelta[33]   *              0             0             1 
    34 scelta[34]   *              0             0             1 
    35 scelta[35]   *              0             0             1 
    36 scelta[36]   *              0             0             1 
    37 scelta[37]   *              1             0             1 
    38 scelta[38]   *              0             0             1 
    39 scelta[39]   *              0             0             1 
    40 scelta[40]   *              1             0             1 

Integer feasibility conditions:

KKT.PE: max.abs.err = 0.00e+00 on row 0
        max.rel.err = 0.00e+00 on row 0
        High quality

KKT.PB: max.abs.err = 0.00e+00 on row 0
        max.rel.err = 0.00e+00 on row 0
        High quality

End of output
